(declare-const Bracket_1 Real)
(declare-const Bracket_2 Real)
(declare-const Bracket_3 Real)
(declare-const Bracket_4 Real)
(declare-const Bracket_5 Real)
(declare-const FinalTaxes Real)
(declare-const Income Real)
(declare-const ite Real)

(assert (= Bracket_1 (* 0.0505 (ite (<= Income 52886) Income 52886))))
(assert (= Bracket_2 (* 0.0915 (ite (> Income 105775) (- 105775 52886) (ite (> Income 52886) (- Income 52886) 0)))))
(assert (= Bracket_3 (* 0.1116 (ite (> Income 150000) (- 150000 105775) (ite (> Income 105775) (- Income 105775) 0)))))
(assert (= Bracket_4 (* 0.1216 (ite (> Income 220000) (- 220000 150000) (ite (> Income 150000) (- Income 150000) 0)))))
(assert (= Bracket_5 (* 0.1316 (ite (> Income 220000) (- Income 220000) 0))))
(assert (= FinalTaxes (+ Bracket_1 Bracket_2 Bracket_3 Bracket_4 Bracket_5)))
